0 4170
2 4120
15 4118
16 4091
18 4062
20 4059
22 4043
23 4032
35 4024
40 4020
41 4016
43 3997
44 3951
46 3948
52 3940
55 3890
63 3884
77 3879
78 3852
84 3845
108 3844
111 3834
114 3817
129 3815
148 3804
182 3799
190 3798
194 3796
205 3781
254 3779
269 3777
317 3771
319 3762
330 3761
355 3756
363 3744
366 3733
408 3731
479 3721
490 3706
536 3704
581 3691
615 3690
639 3679
733 3673
865 3672
962 3671
1279 3660
1296 3657
1343 3654
1370 3646
1403 3645
1408 3638
1514 3637
1656 3635
1719 3633
1760 3627
1864 3623
1932 3615
2011 3614
2079 3609
2360 3607
2481 3591
3451 3590
3504 3589
3513 3587
3925 3586
4147 3584
